
******************************************************************************
This program contains Ipopt, a library for large-scale nonlinear optimization.
 Ipopt is released as open source code under the Eclipse Public License (EPL).
         For more information visit http://projects.coin-or.org/Ipopt

This version of Ipopt was compiled from source code available at
    https://github.com/IDAES/Ipopt as part of the Institute for the Design of
    Advanced Energy Systems Process Systems Engineering Framework (IDAES PSE
    Framework) Copyright (c) 2018-2019. See https://github.com/IDAES/idaes-pse.

This version of Ipopt was compiled using HSL, a collection of Fortran codes
    for large-scale scientific computation.  All technical papers, sales and
    publicity material resulting from use of the HSL codes within IPOPT must
    contain the following acknowledgement:
        HSL, a collection of Fortran codes for large-scale scientific
        computation. See http://www.hsl.rl.ac.uk.
******************************************************************************

This is Ipopt version 3.13.2, running with linear solver ma27.

Number of nonzeros in equality constraint Jacobian...:      808
Number of nonzeros in inequality constraint Jacobian.:        0
Number of nonzeros in Lagrangian Hessian.............:      702

Total number of variables............................:      351
                     variables with only lower bounds:      108
                variables with lower and upper bounds:      189
                     variables with only upper bounds:        0
Total number of equality constraints.................:      350
Total number of inequality constraints...............:        0
        inequality constraints with only lower bounds:        0
   inequality constraints with lower and upper bounds:        0
        inequality constraints with only upper bounds:        0

iter    objective    inf_pr   inf_du lg(mu)  ||d||  lg(rg) alpha_du alpha_pr  ls
   0  0.0000000e+00 4.46e-01 1.11e-16  -1.0 0.00e+00    -  0.00e+00 0.00e+00   0
   1  9.1619442e-01 3.50e-01 3.88e+04  -1.0 2.60e+05    -  4.34e-01 2.26e-01h  1
   2  9.6810699e-01 3.47e-01 3.87e+04  -1.0 2.42e+05    -  7.39e-01 7.78e-03h  1
   3  2.6669457e+01 5.10e-02 2.06e+04  -1.0 2.81e+05    -  7.37e-01 9.90e-01h  1
   4  3.4687590e+01 1.78e-03 1.08e+03  -1.0 4.88e+04    -  9.44e-01 9.90e-01h  1
   5  3.4952253e+01 1.94e-05 3.90e+01  -1.0 1.56e+03    -  9.90e-01 9.90e-01h  1
   6  3.4952791e+01 1.91e-05 1.27e+07  -1.0 3.52e+02    -  9.90e-01 1.55e-02f  7
   7  3.4959953e+01 1.79e-05 2.42e+07  -1.0 1.24e+03    -  9.90e-01 6.19e-02f  5
   8  3.5074933e+01 1.84e-04 3.83e+05  -1.0 1.26e+03    -  1.00e+00 9.90e-01H  1
   9  3.5070423e+01 2.14e-06 1.41e+07  -1.0 5.01e+01    -  1.00e+00 9.90e-01h  1
iter    objective    inf_pr   inf_du lg(mu)  ||d||  lg(rg) alpha_du alpha_pr  ls
  10  3.5070599e+01 2.46e-08 1.41e+09  -1.0 1.95e+00    -  1.00e+00 9.90e-01h  1
  11  3.5070601e+01 2.46e-10 1.41e+11  -1.0 1.97e-02    -  1.00e+00 9.90e-01h  1
In iteration 11, 27 Slacks too small, adjusting variable bounds
  12  3.5070601e+01 4.54e-12 1.41e+13  -1.0 1.97e-04    -  1.00e+00 9.90e-01h  1
  13  3.5070601e+01 1.66e-12 1.23e-01  -1.0 1.96e-06    -  1.00e+00 1.00e+00h  1
  14  3.5070594e+01 3.74e-12 1.43e+13  -9.0 1.47e+03    -  9.96e-01 5.19e-05f 15
  15  3.5070592e+01 3.96e-12 1.44e+13  -9.0 1.25e+03    -  9.98e-01 1.53e-05f 17
  16  3.5070589e+01 4.82e-12 1.44e+13  -9.0 1.25e+03    -  1.00e+00 3.05e-05f 16
  17  3.5070585e+01 6.07e-12 1.44e+13  -9.0 1.25e+03    -  1.00e+00 3.05e-05f 16
  18  3.5070585e+01 5.90e-12 1.44e+13  -9.0 1.25e+03    -  1.00e+00 3.73e-09f 29
  19  3.4956398e+01 1.35e-03 2.44e+00  -9.0 1.25e+03    -  1.00e+00 1.00e+00f  1
iter    objective    inf_pr   inf_du lg(mu)  ||d||  lg(rg) alpha_du alpha_pr  ls
  20  3.4954245e+01 2.78e-09 1.05e-03  -9.0 2.32e+01    -  1.00e+00 1.00e+00h  1
  21  3.4954245e+01 4.61e-12 1.46e-11  -9.0 3.74e-04    -  1.00e+00 1.00e+00h  1

Number of Iterations....: 21

                                   (scaled)                 (unscaled)
Objective...............:   3.4954245398835447e+01    3.4954245398835447e+01
Dual infeasibility......:   1.4551915228366852e-11    1.4551915228366852e-11
Constraint violation....:   4.6060932845648495e-12    4.6060932845648495e-12
Complementarity.........:   9.0909196860435140e-10    9.0909196860435140e-10
Overall NLP error.......:   1.2645118584059256e-11    9.0909196860435140e-10


Number of objective function evaluations             = 143
Number of objective gradient evaluations             = 22
Number of equality constraint evaluations            = 143
Number of inequality constraint evaluations          = 0
Number of equality constraint Jacobian evaluations   = 22
Number of inequality constraint Jacobian evaluations = 0
Number of Lagrangian Hessian evaluations             = 21
Total CPU secs in IPOPT (w/o function evaluations)   =      0.054
Total CPU secs in NLP function evaluations           =      1.121

EXIT: Optimal Solution Found.
